NAME : amz1617.1645456_127456.tour
COMMENT : Cost = 1645456_127456
COMMENT : Found by LKH-AMZ [Keld Helsgaun] Sun May 11 14:56:59 2025
COMMENT : TW viol.: 0 #: 0
TYPE : TOUR
DIMENSION : 169
TOUR_SECTION
31
87
61
160
32
100
10
28
47
126
102
63
109
90
3
60
143
99
162
67
14
1
115
120
92
9
46
145
113
33
44
128
21
108
164
159
127
59
97
117
141
148
64
58
112
12
23
25
15
107
123
34
152
156
80
65
19
150
125
151
11
147
51
6
41
62
134
93
144
121
56
26
69
140
75
38
71
20
81
136
57
13
36
168
130
35
82
106
18
48
124
105
98
72
101
166
139
158
96
86
91
43
137
52
146
135
118
66
132
77
111
157
85
50
2
7
78
22
167
169
114
4
24
30
161
84
79
42
29
39
94
149
153
68
88
89
49
142
95
54
155
122
138
104
154
45
70
73
119
131
83
133
40
76
17
163
74
129
16
27
55
165
110
103
37
53
8
116
5
-1
EOF
